3 5
160 256 200 
0 35 40 67 59 78 77 62 43 17 40 33 27 3
1 35 33 74 67 8 10 13 66 63 52 83 35 1
2 7 3 69 73 46 44 88 72 52 28 32 96 3
3 43 52 92 98 51 45 40 45 89 52 38 1 3
4 80 73 26 23 72 74 33 18 90 26 34 33 1
